1:
 ([8, 29, 35, 16, 12, 5, 9, 6, 33, 44, 24, 3, 19, 27, 30, 45, 1, 36, 2, 23, 14, 7, 4, 31, 40, 11, 22, 37, 15, 20, 21, 34, 32, 42, 17, 10, 25, 28, 39, 26, 18, 13, 43, 38, 41], -198.97, [[-4, 8, 29, 35, 16, 12, 5, 9, -4], [-2, 6, 33, 44, 24, -2], [-3, 3, 19, 27, 30, -3], [-1, 45, 1, 36, 2, 23, 14, 7, 4, 31, 40, -1], [-1, 11, 22, 37, 15, 20, 21, 34, 32, -1], [-3, 42, 17, 10, 25, 28, 39, -3], [-4, 26, 18, 13, 43, 38, 41, -4]], [75, 50, 75, 75, 75, 75, 75], [13, 10, 13, 10, 4, 9, 9])
 [-252.35, -249.14, -248.93, -248.56, -246.84, -243.46, -236.43, -235.89, -216.11, -198.97]

2:
 ([25, 28, 17, 37, 2, 10, 5, 32, 6, 23, 21, 13, 24, 14, 27, 9, 41, 11, 7, 26, 40, 8, 38, 42, 45, 44, 20, 16, 36, 19, 39, 30, 12, 43, 34, 22, 3, 35, 33, 1, 15, 4, 29, 31, 18], -213.8, [[0, 25, 28, 17, 37, 2, 10, 5, 0], [-3, 32, 6, 23, 21, 13, 24, -3], [-3, 14, 27, -3], [-1, 9, 41, 11, -1], [0, 7, 26, 40, 8, 38, 42, 0], [-1, 45, 44, 20, 16, 36, 19, 39, 30, 12, 43, -1], [0, 34, 22, 3, 35, 33, 1, 15, 4, 29, 31, 18, 0]], [75, 75, 75, 40, 75, 75, 75], [12, 12, 11, 7, 10, 5, 9])
 [-292.65, -280.4, -254.09, -245.89, -236.78, -232.8, -225.4, -214.4, -213.8]

3:
 ([5, 41, 20, 42, 43, 12, 25, 23, 11, 15, 6, 30, 16, 32, 24, 3, 39, 4, 28, 36, 35, 19, 1, 27, 21, 45, 10, 26, 34, 18, 13, 9, 40, 31, 7, 22, 2, 38, 44, 33, 37, 29, 8, 14, 17], -205.7, [[-1, 5, 41, 20, 42, 43, 12, 25, 23, 11, 15, 6, -1], [-3, 30, 16, -3], [-3, 32, 24, 3, 39, 4, 28, 36, 35, -3], [-3, 19, 1, 27, 21, 45, 10, 26, -3], [0, 34, 18, 13, 0], [-1, 9, 40, 31, -1], [0, 7, 22, 2, 38, 44, 33, 37, 29, 8, 14, 17, 0]], [75, 50, 75, 75, 75, 75, 75], [6, 7, 13, 12, 11, 13, 5])
 [-254.03, -242.57, -233.86, -233.14, -232.56, -229.52, -227.05, -212.65, -211.15, -205.7]

4:
 ([35, 15, 40, 14, 39, 22, 11, 1, 28, 38, 42, 10, 23, 6, 32, 43, 5, 7, 12, 29, 34, 3, 33, 9, 21, 45, 30, 13, 20, 25, 2, 44, 19, 27, 37, 17, 8, 26, 18, 16, 24, 41, 36, 31, 4], -200.86, [[-4, 35, 15, 40, 14, 39, 22, 11, 1, -4], [-1, 28, 38, 42, 10, 23, 6, -1], [-3, 32, 43, 5, 7, 12, 29, 34, 3, -3], [-3, 33, 9, -3], [-4, 21, 45, 30, -4], [-2, 13, 20, 25, 2, 44, 19, 27, 37, 17, -2], [-4, 8, 26, -4], [0, 18, 16, 24, 41, 36, 31, 4, 0]], [75, 75, 75, 50, 50, 75, 40, 75], [12, 10, 12, 10, 8, 7, 5, 13])
 [-260.72, -260.11, -242.15, -233.73, -232.03, -211.98, -200.86]

5:
 ([39, 11, 8, 30, 44, 20, 24, 32, 26, 36, 12, 9, 41, 38, 23, 4, 18, 22, 45, 3, 10, 7, 28, 37, 14, 6, 1, 19, 15, 17, 40, 43, 27, 25, 13, 5, 31, 33, 42, 35, 21, 2, 34, 29, 16], -213.22, [[-4, 39, 11, 8, 30, 44, 20, 24, 32, 26, 36, 12, 9, 41, 38, 23, 4, 18, 22, 45, 3, -4], [-3, 10, 7, 28, 37, -3], [-3, 14, -3], [-2, 6, 1, 19, -2], [-1, 15, 17, 40, 43, 27, -1], [0, 25, 13, 5, 0], [0, 31, 0], [-3, 33, 42, 35, 21, -3], [-3, 2, 34, 29, 16, -3]], [75, 75, 50, 40, 50, 75, 40, 75, 75], [10, 4, 6, 7, 7, 8, 6, 11, 11])
 [-255.73, -241.74, -232.02, -228.07, -221.71, -213.56, -213.55, -213.22]

6:
 ([6, 26, 24, 44, 40, 29, 10, 35, 42, 43, 19, 5, 9, 31, 16, 22, 18, 17, 13, 14, 38, 23, 28, 3, 2, 1, 39, 32, 15, 36, 34, 20, 37, 33, 21, 27, 11, 41, 25, 7, 4, 8, 30, 12, 45], -203.89, [[-2, 6, 26, 24, 44, -2], [0, 40, 29, 10, 35, 42, 43, 19, 0], [-1, 5, 9, -1], [0, 31, 16, 22, 18, 17, 13, 0], [-3, 14, 38, 23, 28, 3, -3], [-3, 2, 1, 39, 32, 15, -3], [-4, 36, 34, 20, 37, 33, 21, -4], [-4, 27, 11, 41, 25, -4], [0, 7, 4, 8, 30, 12, 45, 0]], [50, 75, 75, 75, 75, 50, 50, 50, 75], [9, 1, 10, 11, 14, 9, 5, 9, 1])
 [-251.89, -234.72, -232.83, -231.93, -228.52, -221.75, -217.81, -204.32, -203.89]

7:
 ([43, 26, 18, 12, 16, 29, 35, 3, 42, 28, 9, 33, 34, 27, 40, 4, 5, 8, 38, 17, 45, 6, 25, 23, 10, 32, 31, 2, 24, 13, 37, 15, 22, 30, 44, 11, 7, 36, 14, 39, 19, 1, 41, 20, 21], -202.24, [[-1, 43, 26, 18, 12, 16, 29, 35, 3, 42, -1], [-1, 28, -1], [-1, 9, -1], [-3, 33, 34, 27, -3], [0, 40, 4, 5, 8, 38, 17, 45, 0], [-2, 6, -2], [0, 25, 23, 10, 32, 31, 0], [-3, 2, 24, 13, 37, 15, 22, 30, 44, 11, 7, 36, 14, -3], [-4, 39, 19, 1, 41, -4], [-2, 20, 21, -2]], [75, 50, 40, 75, 75, 40, 75, 75, 50, 50], [12, 7, 6, 15, 6, 6, 6, 8, 5, 0])
 [-281.64, -261.32, -259.83, -233.2, -232.09, -224.44, -202.24]

8:
 ([41, 25, 13, 23, 39, 2, 28, 37, 27, 30, 24, 7, 4, 43, 22, 11, 12, 44, 19, 33, 5, 26, 42, 45, 14, 6, 8, 10, 17, 31, 36, 1, 15, 38, 16, 29, 18, 3, 35, 32, 34, 40, 20, 21, 9], -202.35, [[-4, 41, 25, 13, 23, 39, 2, -4], [-1, 28, 37, 27, 30, -1], [-2, 24, 7, 4, 43, 22, 11, 12, 44, 19, 33, 5, 26, -2], [-3, 42, 45, 14, -3], [-2, 6, 8, -2], [-3, 10, 17, 31, 36, 1, 15, 38, -3], [-3, 16, 29, 18, 3, -3], [-4, 35, 32, 34, 40, 20, 21, -4], [-1, 9, -1]], [75, 75, 75, 75, 50, 50, 40, 75, 75], [5, 13, 2, 11, 9, 1, 8, 13, 6])
 [-285.28, -260.37, -243.07, -240.53, -234.3, -232.46, -228.9, -224.78, -219.56, -217.83, -210.27, -210.07, -202.35]

9:
 ([21, 33, 5, 26, 20, 43, 30, 24, 25, 28, 14, 36, 17, 19, 32, 6, 7, 8, 41, 22, 23, 40, 31, 1, 39, 12, 11, 44, 13, 37, 45, 3, 42, 15, 35, 27, 38, 16, 29, 34, 18, 10, 2, 9, 4], -213.58, [[-4, 21, 33, 5, 26, 20, 43, 30, 24, -4], [0, 25, 28, 0], [-3, 14, 36, 17, 19, 32, -3], [-2, 6, 7, -2], [-4, 8, 41, -4], [-3, 22, 23, 40, 31, 1, 39, 12, 11, 44, 13, 37, 45, 3, -3], [-3, 42, 15, 35, -3], [-4, 27, 38, 16, 29, 34, -4], [0, 18, 10, 2, 9, 4, 0]], [75, 75, 75, 40, 40, 75, 40, 75, 75], [13, 10, 11, 7, 3, 1, 5, 13, 10])
 [-286.03, -265.38, -263.04, -251.11, -249.82, -243.63, -238.65, -235.35, -234.76, -228.74, -222.33, -219.95, -215.46, -213.58]

10:
 ([17, 16, 36, 40, 14, 21, 45, 3, 32, 15, 29, 39, 20, 41, 26, 22, 11, 24, 1, 34, 30, 13, 8, 6, 5, 7, 42, 37, 33, 19, 10, 4, 28, 38, 23, 25, 9, 44, 12, 43, 27, 2, 35, 18, 31], -202.31, [[-2, 17, 16, 36, 40, 14, -2], [-4, 21, 45, 3, 32, 15, 29, 39, -4], [-2, 20, 41, 26, 22, 11, 24, 1, 34, 30, 13, -2], [-4, 8, 6, 5, -4], [0, 7, 42, 37, 33, 19, 10, 4, 28, 38, 23, 25, 0], [-1, 9, 44, 12, 43, 27, 2, 35, -1], [0, 18, 31, 0]], [75, 75, 75, 75, 75, 75, 50], [10, 14, 0, 13, 9, 12, 10])
 [-288.39, -274.07, -269.8, -263.72, -260.26, -249.42, -244.65, -238.86, -234.36, -233.27, -219.43, -215.25, -202.31]

11:
 ([5, 8, 23, 15, 4, 31, 24, 13, 26, 39, 27, 29, 20, 3, 38, 40, 41, 32, 22, 6, 1, 17, 45, 18, 2, 37, 28, 35, 30, 11, 44, 34, 25, 7, 36, 21, 16, 10, 33, 19, 9, 42, 14, 43, 12], -203.74, [[-1, 5, 8, 23, 15, 4, 31, 24, 13, 26, 39, -1], [-4, 27, 29, 20, 3, 38, 40, 41, 32, 22, 6, 1, 17, 45, 18, -4], [-3, 2, 37, 28, 35, -3], [-3, 30, 11, 44, -3], [0, 34, 25, 7, 36, 21, 0], [-3, 16, 10, 33, 19, -3], [-1, 9, -1], [-3, 42, 14, 43, 12, -3]], [75, 75, 75, 40, 75, 75, 40, 75], [12, 6, 12, 5, 12, 8, 6, 9])
 [-267.69, -257.58, -245.59, -245.12, -238.07, -236.69, -234.72, -225.22, -219.88, -206.6, -203.74]

12:
 ([14, 29, 12, 8, 39, 37, 36, 2, 41, 6, 3, 11, 45, 20, 34, 31, 21, 25, 27, 32, 35, 23, 30, 10, 18, 17, 40, 4, 7, 44, 9, 5, 43, 19, 22, 13, 26, 1, 28, 33, 42, 15, 24, 16, 38], -212.48, [[-3, 14, 29, 12, 8, 39, 37, 36, 2, 41, 6, -3], [-3, 3, 11, 45, 20, 34, -3], [0, 31, 0], [-4, 21, 25, -4], [-4, 27, 32, 35, 23, 30, 10, 18, 17, 40, 4, -4], [0, 7, 44, 9, 5, 43, 0], [-3, 19, 22, 13, 26, 1, 28, 33, -3], [-3, 42, 15, 24, -3], [-3, 16, 38, -3]], [75, 50, 40, 40, 75, 75, 75, 50, 75], [10, 9, 6, 6, 11, 9, 9, 4, 6])
 [-280.27, -277.56, -267.69, -253.14, -252.1, -227.11, -221.42, -221.17, -219.39, -212.64, -212.48]

13:
 ([23, 25, 45, 12, 27, 42, 39, 15, 29, 19, 26, 43, 33, 3, 20, 16, 24, 41, 22, 9, 38, 31, 40, 8, 11, 34, 17, 4, 5, 10, 37, 1, 28, 6, 30, 14, 13, 21, 32, 2, 7, 44, 36, 35, 18], -216.84, [[-4, 23, 25, 45, 12, 27, 42, 39, -4], [-1, 15, 29, 19, 26, 43, -1], [-3, 33, 3, 20, 16, 24, 41, 22, 9, 38, 31, -3], [0, 40, 8, 11, 0], [0, 34, 17, 4, 5, 10, 37, 1, 28, 6, 0], [-3, 30, 14, 13, 21, -3], [-3, 32, 2, -3], [0, 7, 44, 36, 35, 18, 0]], [75, 40, 75, 50, 75, 75, 40, 40], [9, 3, 12, 7, 10, 12, 8, 3])
 [-299.22, -233.87, -222.38, -217.48, -216.88, -216.84]

14:
 ([21, 5, 44, 39, 1, 36, 8, 11, 14, 22, 24, 12, 41, 3, 42, 15, 37, 23, 28, 35, 7, 13, 6, 33, 18, 26, 27, 20, 31, 16, 10, 30, 43, 32, 38, 40, 34, 17, 29, 45, 9, 19, 4, 25, 2], -209.02, [[-4, 21, 5, 44, 39, 1, 36, 8, 11, -4], [-3, 14, 22, 24, 12, 41, 3, 42, 15, 37, 23, 28, 35, -3], [0, 7, 13, 6, 33, 0], [0, 18, 26, 27, 20, 31, 0], [-3, 16, 10, 30, 43, 32, 38, 40, -3], [0, 34, 17, 29, 45, 9, 19, 4, 25, 0], [-3, 2, -3]], [75, 75, 75, 75, 75, 75, 40], [9, 7, 12, 11, 10, 13, 4])
 [-277.02, -267.94, -239.43, -237.61, -227.74, -216.32, -209.02]

15:
 ([3, 38, 27, 21, 20, 6, 26, 43, 30, 19, 37, 42, 14, 7, 29, 45, 15, 12, 32, 41, 10, 22, 8, 4, 31, 44, 13, 5, 34, 25, 39, 11, 24, 18, 40, 28, 16, 17, 9, 23, 2, 1, 36, 35, 33], -199.36, [[-3, 3, 38, 27, -3], [-4, 21, 20, 6, 26, 43, -4], [-3, 30, 19, 37, -3], [-3, 42, 14, 7, 29, 45, 15, 12, 32, 41, 10, -3], [-3, 22, 8, 4, 31, 44, 13, 5, -3], [0, 34, 25, 39, 11, 0], [-2, 24, 18, 40, -2], [-1, 28, 16, 17, -1], [-1, 9, 23, 2, 1, 36, 35, 33, -1]], [50, 50, 40, 75, 75, 75, 40, 75, 75], [9, 6, 5, 10, 0, 14, 6, 12, 10])
 [-294.57, -249.18, -230.33, -225.52, -220.71, -211.68, -207.78, -199.36]

16:
 ([6, 20, 40, 19, 12, 17, 7, 33, 21, 1, 4, 11, 8, 3, 35, 26, 24, 9, 5, 18, 13, 2, 38, 27, 41, 31, 36, 16, 10, 44, 15, 14, 22, 25, 23, 39, 45, 29, 30, 43, 32, 34, 28, 37, 42], -203.9, [[-2, 6, 20, 40, 19, 12, 17, 7, 33, 21, 1, 4, 11, 8, 3, 35, -2], [-4, 26, 24, 9, 5, -4], [0, 18, 13, 2, 38, 0], [-4, 27, 41, 31, 36, -4], [-3, 16, 10, 44, 15, 14, 22, 25, 23, 39, 45, 29, 30, 43, 32, -3], [0, 34, 28, 37, 0], [-3, 42, -3]], [75, 75, 75, 50, 75, 75, 75], [12, 13, 10, 9, 7, 13, 2])
 [-279.18, -255.5, -249.02, -239.22, -236.95, -233.56, -231.92, -231.59, -229.71, -214.26, -203.9]

17:
 ([40, 7, 13, 10, 2, 24, 44, 19, 45, 42, 30, 8, 41, 16, 37, 33, 39, 18, 26, 25, 34, 21, 36, 12, 27, 22, 38, 20, 43, 11, 3, 14, 31, 4, 1, 6, 28, 23, 15, 29, 5, 9, 17, 35, 32], -184.18, [[0, 40, 7, 13, 10, 2, 24, 44, 19, 45, 0], [-3, 42, 30, -3], [-4, 8, 41, 16, 37, 33, -4], [-4, 39, 18, 26, -4], [0, 25, 34, 21, 36, 12, 27, 22, 38, 20, 43, 11, 3, 0], [-3, 14, -3], [0, 31, 4, 1, 6, 28, 23, 15, 29, 5, 0], [-1, 9, 17, 35, 32, -1]], [75, 40, 50, 50, 75, 40, 75, 75], [7, 4, 9, 8, 13, 6, 12, 11])
 [-270.36, -233.79, -221.52, -213.11, -208.77, -207.89, -184.18]

18:
 ([44, 39, 18, 12, 42, 45, 4, 26, 3, 25, 17, 23, 16, 24, 15, 31, 6, 29, 34, 33, 5, 9, 28, 22, 1, 21, 7, 13, 41, 11, 8, 30, 14, 20, 43, 38, 37, 19, 35, 10, 36, 2, 40, 32, 27], -202.27, [[-2, 44, 39, 18, 12, 42, -2], [-1, 45, 4, 26, 3, 25, 17, 23, 16, 24, 15, -1], [0, 31, 0], [-2, 6, 29, 34, -2], [-3, 33, 5, -3], [-1, 9, -1], [-1, 28, 22, 1, 21, 7, -1], [-2, 13, 41, 11, 8, -2], [-3, 30, -3], [-3, 14, 20, 43, 38, 37, 19, 35, 10, 36, 2, -3], [0, 40, 32, 0], [-4, 27, -4]], [40, 75, 40, 40, 50, 50, 50, 50, 40, 50, 40, 75], [3, 9, 6, 8, 8, 6, 7, 5, 2, 6, 5, 5])
 [-285.99, -267.54, -258.46, -257.16, -249.52, -248.05, -243.69, -224.33, -221.57, -209.79, -202.27]

19:
 ([28, 24, 2, 21, 23, 40, 17, 29, 20, 13, 44, 11, 6, 26, 3, 10, 30, 12, 27, 35, 36, 4, 8, 7, 18, 41, 34, 31, 19, 25, 39, 5, 42, 45, 33, 32, 14, 43, 1, 9, 16, 15, 37, 22, 38], -203.15, [[-1, 28, 24, -1], [-3, 2, 21, 23, 40, 17, 29, 20, -3], [-2, 13, 44, 11, 6, 26, -2], [-3, 3, 10, 30, 12, 27, 35, 36, 4, 8, 7, 18, 41, -3], [0, 34, 31, 0], [-3, 19, 25, 39, 5, -3], [-3, 42, 45, -3], [-3, 33, 32, 14, -3], [-1, 43, 1, 9, -1], [-3, 16, 15, 37, 22, 38, -3]], [50, 75, 75, 75, 75, 75, 40, 75, 40, 75], [8, 7, 9, 7, 12, 12, 5, 14, 5, 6])
 [-269.83, -232.47, -231.24, -216.48, -203.15]

20:
 ([31, 6, 3, 43, 28, 34, 16, 17, 4, 14, 42, 2, 33, 37, 13, 25, 41, 18, 5, 26, 27, 8, 11, 35, 20, 40, 22, 21, 9, 24, 44, 23, 15, 29, 38, 1, 19, 39, 7, 45, 32, 12, 30, 10, 36], -206.79, [[0, 31, 6, 3, 0], [-1, 43, 28, 34, -1], [-3, 16, 17, 4, 14, 42, 2, -3], [-3, 33, 37, 13, 25, 41, 18, 5, -3], [-4, 26, 27, 8, 11, -4], [-4, 35, 20, 40, 22, 21, 9, 24, 44, 23, 15, 29, 38, 1, 19, 39, 7, -4], [-1, 45, 32, 12, 30, 10, 36, -1]], [75, 75, 75, 75, 75, 75, 75], [15, 14, 11, 13, 13, 2, 7])
 [-280.29, -273.53, -267.07, -258.85, -250.87, -229.6, -228.29, -226.1, -223.06, -222.16, -210.24, -209.71, -206.79]

